peakDumbCharging = 7400; 
Machine = anon_enum(16); 
machineSpeed = [3700,3700,3700,3700,3700,3700,3700,3700,3700,3700,3700,3700,3700,3700,3700,3700]; 
machineLoad = [3700,3700,3700,3700,3700,3700,3700,3700,3700,3700,3700,3700,3700,3700,3700,3700]; 
Car = anon_enum(7); 
demandCar = [5240,15640,3320,11560,13600,5840,14680]; 
arrivalCar = [72,72,68,66,56,46,42]; 
departureCar = [75,78,70,70,62,49,48]; 
